
Gurobi 7.0.2 (win64, Python) logging started 07/23/18 00:34:57


Gurobi 7.0.2 (win64, Python) logging started 07/23/18 15:44:18


Gurobi 7.0.2 (win64, Python) logging started 07/24/18 11:02:45


Gurobi 7.0.2 (win64, Python) logging started 07/24/18 11:17:38


Gurobi 7.0.2 (win64, Python) logging started 07/24/18 11:30:47


Gurobi 7.0.2 (win64, Python) logging started 07/24/18 13:40:31


Gurobi 7.0.2 (win64, Python) logging started 07/24/18 13:41:30


Gurobi 7.0.2 (win64, Python) logging started 07/24/18 13:45:01


Gurobi 7.0.2 (win64, Python) logging started 07/24/18 13:47:47


Gurobi 7.0.2 (win64, Python) logging started 07/24/18 13:55:26


Gurobi 7.0.2 (win64, Python) logging started 07/24/18 14:56:15


Gurobi 7.0.2 (win64, Python) logging started 07/24/18 15:04:29


Gurobi 7.0.2 (win64, Python) logging started 07/24/18 15:06:53


Gurobi 7.0.2 (win64, Python) logging started 07/24/18 16:35:17


Gurobi 7.0.2 (win64, Python) logging started 07/24/18 17:17:35


Gurobi 7.0.2 (win64, Python) logging started 07/24/18 17:20:36


Gurobi 7.0.2 (win64, Python) logging started 07/24/18 17:57:07


Gurobi 7.0.2 (win64, Python) logging started 07/25/18 11:19:47


Gurobi 7.0.2 (win64, Python) logging started 07/25/18 11:21:01


Gurobi 7.0.2 (win64, Python) logging started 07/25/18 11:25:11


Gurobi 7.0.2 (win64, Python) logging started 07/25/18 14:46:09


Gurobi 7.0.2 (win64, Python) logging started 07/25/18 14:51:30


Gurobi 7.0.2 (win64, Python) logging started 07/25/18 14:57:03


Gurobi 7.0.2 (win64, Python) logging started 07/25/18 15:11:48


Gurobi 7.0.2 (win64, Python) logging started 07/26/18 11:44:45


Gurobi 7.0.2 (win64, Python) logging started 07/26/18 11:47:20


Gurobi 7.0.2 (win64, Python) logging started 07/26/18 11:49:21


Gurobi 7.0.2 (win64, Python) logging started 07/26/18 11:50:25


Gurobi 7.0.2 (win64, Python) logging started 07/26/18 12:06:39


Gurobi 7.0.2 (win64, Python) logging started 07/26/18 13:26:37


Gurobi 7.0.2 (win64, Python) logging started 07/26/18 13:34:33


Gurobi 7.0.2 (win64, Python) logging started 07/26/18 13:36:58


Gurobi 7.0.2 (win64, Python) logging started 07/29/18 15:48:38


Gurobi 7.0.2 (win64, Python) logging started 07/29/18 15:57:36


Gurobi 7.0.2 (win64, Python) logging started 07/31/18 11:16:55


Gurobi 7.0.2 (win64, Python) logging started 07/31/18 11:18:10


Gurobi 7.0.2 (win64, Python) logging started 07/31/18 11:19:05


Gurobi 7.0.2 (win64, Python) logging started 07/31/18 17:25:42

